# Node Net
 72   1
2880   1
 88   1
  5   2
6931   2
8051   2
7650   3
1891   3
8100   3
3870   4
 70   4
8070   4
 14   5
 22   5
3420   5
2611   6
4951   6
5131   6
7471   7
7111   7
 38   7
8055   8
8072   8
8013   8
8079   9
3690   9
 29   9
 33  10
 24  10
3060  11
1441  11
1351  12
451  12
5310  13
2251  13
8090  14
6211  14
